c Ramsey: 2-color E(K_6), no monochromatic K_3 (15 edges)
p cnf 15 40
-1 -2 -6 0
1 2 6 0
-1 -3 -7 0
1 3 7 0
-1 -4 -8 0
1 4 8 0
-1 -5 -9 0
1 5 9 0
-2 -3 -10 0
2 3 10 0
-2 -4 -11 0
2 4 11 0
-2 -5 -12 0
2 5 12 0
-3 -4 -13 0
3 4 13 0
-3 -5 -14 0
3 5 14 0
-4 -5 -15 0
4 5 15 0
-6 -7 -10 0
6 7 10 0
-6 -8 -11 0
6 8 11 0
-6 -9 -12 0
6 9 12 0
-7 -8 -13 0
7 8 13 0
-7 -9 -14 0
7 9 14 0
-8 -9 -15 0
8 9 15 0
-10 -11 -13 0
10 11 13 0
-10 -12 -14 0
10 12 14 0
-11 -12 -15 0
11 12 15 0
-13 -14 -15 0
13 14 15 0
